NAME mip_typeD_934
OBJSENSE MAX
ROWS
 N  OBJ
 L  c0      
 L  c1      
 G  c2      
 G  c3      
 G  c4      
 L  c_key_upper
 G  c_key_lower
 G  _chain_constr_1
 G  _chain_constr_2
 G  _chain_constr_3
 G  _chain_constr_4
 G  _chain_constr_5
 G  _chain_cycle
COLUMNS
    MARKER    'MARKER'                 'INTORG'
    x0        OBJ       9.7483356799274978e-01
    x0        c0        1.6756336658038207e+00
    x0        c1        1.3847369596475980e+00
    x0        c2        1.4634984780243019e+00
    x0        c3        1.2212950296957843e+00
    x0        c4        1.6223086653282277e+00
    x0        c_key_upper  1.6322188165277729e+00
    x0        c_key_lower  1.6322188165277729e+00
    x1        OBJ       1.3567051258221356e+00
    x1        c0        5.2706645467684510e-01
    x1        c1        8.0886447347763024e-01
    x1        c2        6.4899060316810941e-01
    x1        c3        1.4413556204261737e+00
    x1        c4        1.4053639943347205e+00
    x1        c_key_upper  1.6562349080030994e+00
    x1        c_key_lower  1.6562349080030994e+00
    x2        OBJ       5.7028669104639718e-01
    x2        c0        1.5540237412702680e+00
    x2        c1        1.4287306930853281e+00
    x2        c2        1.5952272145951256e+00
    x2        c3        8.1295210458317912e-01
    x2        c4        5.5455118203558740e-01
    x2        c_key_upper  1.2360393812035584e+00
    x2        c_key_lower  1.2360393812035584e+00
    x3        OBJ       1.1491652008371416e+00
    x3        c0        1.5988436431560187e+00
    x3        c1        1.9751481531701005e+00
    x3        c2        1.7927549244949557e+00
    x3        c3        6.0891741087298157e-01
    x3        c4        5.1319542460375867e-01
    x3        c_key_upper  1.6384989774935785e+00
    x3        c_key_lower  1.6384989774935785e+00
    MARKER    'MARKER'                 'INTEND'
    x4        OBJ       0.985504109392439
    x4        c0        1.0509565383534654e+00
    x4        c1        1.8889721023205046e+00
    x4        c2        1.7940925375150381e+00
    x4        c3        1.4205977959599982e+00
    x4        c4        7.8151418525485350e-01
    x4        c_key_upper  1.0811879245858895e+00
    x4        c_key_lower  1.0811879245858895e+00
    x5        OBJ       5.6085621135968022e-01
    x5        c0        1.4800576934058398e+00
    x5        c1        1.7027429152151743e+00
    x5        c2        1.1015007788613722e+00
    x5        c3        1.4517975002547823e+00
    x5        c4        8.3836514340837986e-01
    x5        c_key_upper  1.6748352508036271e+00
    x5        c_key_lower  1.6748352508036271e+00
    x6        OBJ       5.6905279593796787e-01
    x6        c0        1.5215734162954053e+00
    x6        c1        1.5018203896945983e+00
    x6        c2        1.4981648204578244e+00
    x6        c3        1.9969485423597937e+00
    x6        c4        8.0135825538116412e-01
    x6        c_key_upper  1.65502893974482
    x6        c_key_lower  1.65502893974482
    x7        OBJ       6.8591924105873858e-01
    x7        c0        6.0358497724160332e-01
    x7        c1        1.4736803403963412e+00
    x7        c2        6.7796437114010488e-01
    x7        c3        7.9268533589896562e-01
    x7        c4        7.1965557016451154e-01
    x7        c_key_upper  1.4385356826194391e+00
    x7        c_key_lower  1.4385356826194391e+00
    x8        OBJ       1.4026625336136658e+00
    x8        c0        1.9120078744431939e+00
    x8        c1        1.6143748996169869e+00
    x8        c2        1.1632194303808825e+00
    x8        c3        1.9602891853635211e+00
    x8        c4        1.2828813517072912e+00
    x8        c_key_upper  1.1075411279891041e+00
    x8        c_key_lower  1.1075411279891041e+00
    _chain_var_0  _chain_constr_1  -1
    _chain_var_0  _chain_cycle  1
    _chain_var_1  _chain_constr_1  1
    _chain_var_1  _chain_constr_2  -1
    _chain_var_2  _chain_constr_2  1
    _chain_var_2  _chain_constr_3  -1
    _chain_var_3  _chain_constr_3  1
    _chain_var_3  _chain_constr_4  -1
    _chain_var_4  _chain_constr_4  1
    _chain_var_4  _chain_constr_5  -1
    _chain_var_5  _chain_constr_5  1
    _chain_var_5  _chain_cycle  -1
RHS
    RHS1      c0        6.2307761708708995e+01
    RHS1      c1        6.7663344335331431e+01
    RHS1      c2        1.8077468801790630e+01
    RHS1      c3        1.8086267666926481e+01
    RHS1      c4        6.8177324984082253e+00
    RHS1      c_key_upper  6.5600605044854447e+01
    RHS1      c_key_lower  2.6240242017941782e+01
    RHS1      _chain_constr_1  10
    RHS1      _chain_constr_2  10
    RHS1      _chain_constr_3  10
    RHS1      _chain_constr_4  10
    RHS1      _chain_constr_5  10
    RHS1      _chain_cycle  10
BOUNDS
 UP BND1      x0        15
 UP BND1      x1        15
 UP BND1      x2        15
 UP BND1      x3        15
 UP BND1      x4        10
 UP BND1      x5        10
 UP BND1      x6        10
 UP BND1      x7        10
 UP BND1      x8        10
 UP BND1      _chain_var_0  100
 UP BND1      _chain_var_1  100
 UP BND1      _chain_var_2  100
 UP BND1      _chain_var_3  100
 UP BND1      _chain_var_4  100
 UP BND1      _chain_var_5  100
ENDATA
